# 
# This is the geometry file that corresponds to the current relaxation step.
# If you do not want this file to be written, set the "write_restart_geometry" flag to .false.
#  aims_uuid : 94145073-ED3D-4B7D-A3C6-C2BBD6F25CD3                                
# 
lattice_vector      3.11770684     -0.00000000     -0.00000000
lattice_vector      0.00000000      3.11771096     -0.00000000
lattice_vector     -0.00000000      0.00000000      5.30795733
atom       0.00000582      1.55885196      2.65397846 Pt
atom       1.55885136      0.00001152      0.00000020 Pt
atom      -0.00000185     -0.00000400      1.32699013 O
atom      -0.00000191     -0.00000400      3.98096720 O
# 
# What follows is the current estimated Hessian matrix constructed by the BFGS algorithm.
# This is NOT the true Hessian matrix of the system.
# If you do not want this information here, switch it off using the "hessian_to_restart_geometry" keyword.
# 
trust_radius             0.2000000030
hessian_file
