lattice_vector 3.1586040000000000 0.0000000000000000 0.0000000000000000 
lattice_vector 0.0000000000000000 3.1586040000000000 0.0000000000000000 
lattice_vector 0.0000000000000000 0.0000000000000000 5.3588940000000003 

atom 0.0000000000000000 1.5793020000000000 2.6794470000000001 Pt
atom 1.5793020000000000 0.0000000000000000 0.0000000000000000 Pt
atom 0.0000000000000000 0.0000000000000000 1.3397235000000001 O
atom 0.0000000000000000 0.0000000000000000 4.0191705000000004 O
