# 
# This is the geometry file that corresponds to the current relaxation step.
# If you do not want this file to be written, set the "write_restart_geometry" flag to .false.
#  aims_uuid : DB20CF38-BE3F-4576-A1C7-7E976C51CEE1                                
# 
lattice_vector      3.14971754     -0.00000000      0.00000000
lattice_vector      0.00000000      3.14972819     -0.00000000
lattice_vector     -0.00000000     -0.00000000      5.38230440
atom       0.00019346      1.57470539      2.69115164 Pt
atom       1.57479913      0.00051441      0.00000045 Pt
atom      -0.00006691     -0.00017790      1.34557804 O
atom      -0.00006691     -0.00017781      4.03672647 O
# 
# What follows is the current estimated Hessian matrix constructed by the BFGS algorithm.
# This is NOT the true Hessian matrix of the system.
# If you do not want this information here, switch it off using the "hessian_to_restart_geometry" keyword.
# 
trust_radius             0.2000000030
hessian_file
